0 1 0 1 1 1 1 0 1 1 0 1 1 
0 21 34 16 2 4 3 24 14 20 27 30 40 
21 0 29 9 19 22 14 13 41 41 28 25 21 
34 29 0 43 37 42 24 19 20 16 26 20 31 
16 9 43 0 12 7 7 34 27 39 6 13 12 
2 19 37 12 0 13 7 26 23 40 29 27 21 
4 22 42 7 13 0 39 41 4 22 12 11 14 
3 14 24 7 7 39 0 12 27 43 36 36 4 
24 13 19 34 26 41 12 0 43 33 34 16 34 
14 41 20 27 23 4 27 43 0 2 42 44 31 
20 41 16 39 40 22 43 33 2 0 12 26 12 
27 28 26 6 29 12 36 34 42 12 0 39 26 
30 25 20 13 27 11 36 16 44 26 39 0 18 
40 21 31 12 21 14 4 34 31 12 26 18 0 
5 7
1B 5P 7P 13P 12P 3B 8B 2P 4P 11B 10P 9P 6P = 120